307
354
331
395
392
390
415
408
364
397
397
264
317
322
337
326
311
362
331
311
496
391
274
302
387
435
376
439
479
424
322
217
347
412
321
240
301
320
378
317
287
620
412
282
338
425
467
458
363
359
412
358
367
360
284
251
446
474
401
308
362
305
397
244
359
497
360
265
366
373
262
599
430
327
358
531
281
536
336
217
386
270
275
308
514
345
445
354
359
363
510
259
329
324
359
357
214
263
209
409
